
Log started (V12.10.0.0) Mon Apr  5 23:59:26 2021


Problem 'asset.lp' read.
Read time = 0.01 sec. (0.41 ticks)
New value for default parallel thread count: 1
New value for time limit in seconds: 150
Version identifier: 12.10.0.0 | 2019-11-26 | 843d4de
CPXPARAM_Threads                                 1
CPXPARAM_TimeLimit                               150
Found incumbent of value 0.000000 after 0.00 sec. (0.11 ticks)
Tried aggregator 3 times.
MIP Presolve eliminated 1143 rows and 394 columns.
MIP Presolve modified 3231 coefficients.
Aggregator did 1241 substitutions.
Reduced MIP has 1386 rows, 1815 columns, and 7890 nonzeros.
Reduced MIP has 1544 binaries, 222 generals, 0 SOSs, and 0 indicators.
Presolve time = 0.02 sec. (17.35 ticks)
Probing fixed 21 vars, tightened 1 bounds.
Probing time = 0.01 sec. (8.21 ticks)
Cover probing fixed 0 vars, tightened 10 bounds.
Tried aggregator 1 time.
Detecting symmetries...
MIP Presolve eliminated 28 rows and 28 columns.
MIP Presolve modified 250 coefficients.
Reduced MIP has 1358 rows, 1787 columns, and 7607 nonzeros.
Reduced MIP has 1517 binaries, 221 generals, 0 SOSs, and 0 indicators.
Presolve time = 0.01 sec. (7.09 ticks)
Probing time = 0.00 sec. (2.76 ticks)
Clique table members: 4840.
MIP emphasis: balance optimality and feasibility.
MIP search method: dynamic search.
Parallel mode: none, using 1 thread.
Root relaxation solution time = 0.02 sec. (19.98 ticks)

        Nodes                                         Cuts/
   Node  Left     Objective  IInf  Best Integer    Best Bound    ItCnt     Gap

*     0+    0                            0.0000      282.0000              --- 
      0     0      282.0000   274        0.0000      282.0000      503     --- 
      0     0      282.0000   274        0.0000     Cuts: 189     1057     --- 
      0     0      282.0000   274        0.0000     Cuts: 132     1577     --- 
      0     0      282.0000   274        0.0000     Cuts: 439     2182     --- 
*     0+    0                           24.0000      282.0000              --- 
      0     0        cutoff             24.0000      282.0000     2182     --- 
*     0+    0                           46.0000      282.0000           513.04%
*     0+    0                           84.0000      282.0000           235.71%
*     0+    0                           86.0000      282.0000           227.91%
*     0+    0                           96.0000      282.0000           193.75%
      0     0        cutoff             96.0000      282.0000     2182  193.75%
Detecting symmetries...
      0     2      282.0000   188       96.0000      282.0000     2182  193.75%
Elapsed time = 0.70 sec. (887.02 ticks, tree = 0.01 MB, solutions = 5)
     20    22      282.0000   186       96.0000      282.0000     4925  193.75%
     42    44      282.0000   204       96.0000      282.0000     7015  193.75%
     84    86      282.0000   212       96.0000      282.0000    10979  193.75%
    134   136      282.0000   187       96.0000      282.0000    14777  193.75%
    160   162      281.9911   243       96.0000      282.0000    17343  193.75%
    180   182      282.0000   187       96.0000      282.0000    21601  193.75%
    221   223      278.7922   206       96.0000      282.0000    25859  193.75%
    251   249      282.0000   226       96.0000      282.0000    29167  193.75%
    274   272      281.9842   228       96.0000      282.0000    33292  193.75%
*   445   412      integral     0      200.0000      282.0000    39880   41.00%
    465   431      281.3530   243      200.0000      282.0000    45822   41.00%
Elapsed time = 3.22 sec. (4182.07 ticks, tree = 1.32 MB, solutions = 6)
*   557+  512                          206.0000      282.0000            36.89%
*   557+  506                          208.0000      282.0000            35.58%
    557   508      282.0000   305      208.0000      282.0000    53443   35.58%

Performing restart 1

Repeating presolve.
Tried aggregator 1 time.
MIP Presolve eliminated 2 rows and 0 columns.
MIP Presolve modified 1843 coefficients.
Reduced MIP has 1356 rows, 1787 columns, and 6404 nonzeros.
Reduced MIP has 1517 binaries, 221 generals, 0 SOSs, and 0 indicators.
Presolve time = 0.01 sec. (5.85 ticks)
Tried aggregator 1 time.
Reduced MIP has 1356 rows, 1787 columns, and 6404 nonzeros.
Reduced MIP has 1517 binaries, 221 generals, 0 SOSs, and 0 indicators.
Presolve time = 0.00 sec. (4.68 ticks)
Represolve time = 0.04 sec. (28.46 ticks)
    667     0      282.0000   392      208.0000     Cuts: 120    66730   35.58%
    667     0      281.3038   392      208.0000     Cuts: 404    70556   35.24%
    667     0      280.5640   392      208.0000     Cuts: 379    71926   34.89%
    667     0      279.9090   392      208.0000     Cuts: 355    74975   34.57%
    667     0      279.7222   392      208.0000     Cuts: 218    75834   34.48%
    667     0      279.5161   392      208.0000     Cuts: 242    76733   34.38%
    667     0      279.3909   392      208.0000     Cuts: 293    77857   34.32%
    667     0      279.1374   392      208.0000     Cuts: 252    78525   34.20%
    667     0      279.0006   392      208.0000     Cuts: 286    79321   34.13%
    667     0      278.9538   392      208.0000     Cuts: 211    80096   34.11%
    667     0      278.9059   392      208.0000     Cuts: 206    80765   34.09%
    667     0      278.8271   392      208.0000     Cuts: 270    81433   34.05%
    667     0      278.7574   392      208.0000     Cuts: 221    82415   34.02%
    667     0      278.7247   392      208.0000     Cuts: 283    83289   34.00%
    667     0      278.7071   392      208.0000     Cuts: 250    83982   33.99%
    667     0      278.6337   392      208.0000     Cuts: 202    85460   33.96%
    667     0      278.5412   392      208.0000     Cuts: 274    86945   33.91%
    667     0      278.4561   392      208.0000     Cuts: 254    88404   33.87%
    667     0      278.4464   392      208.0000     Cuts: 280    89264   33.87%
    667     0      278.4131   392      208.0000     Cuts: 209    91204   33.85%
    667     0      278.4055   392      208.0000     Cuts: 249    91709   33.85%
    667     0      278.3460   392      208.0000      Cuts: 93    92522   33.82%
    667     0      278.3295   392      208.0000     Cuts: 244    93394   33.81%
    667     0      278.3031   392      208.0000     Cuts: 133    94486   33.80%
    667     0      278.2919   392      208.0000     Cuts: 163    95384   33.79%
*   667+    0                          210.0000      278.2919            32.52%
    667     0        cutoff            210.0000      278.2919    95384   32.52%
    667     2      278.2919   326      210.0000      278.2794    95384   32.51%
    673     8      276.8143   276      210.0000      278.1970    98850   32.47%
    678    13      277.2595   307      210.0000      278.1970   106841   32.47%
    686    21      275.7492   316      210.0000      278.1970   113649   32.47%
    692    27      275.7203   290      210.0000      278.1970   119862   32.47%
    695    30      275.7323   327      210.0000      278.1970   127512   32.47%
    704    39      273.5875   332      210.0000      278.1970   134132   32.47%
    715    50      272.0911   301      210.0000      278.1970   143041   32.47%
    723    58      270.1253   281      210.0000      278.1970   153114   32.47%
Elapsed time = 20.26 sec. (26408.45 ticks, tree = 0.11 MB, solutions = 9)
    739    73      268.0233   289      210.0000      278.1970   161156   32.47%
    748    78      276.6272   288      210.0000      278.1615   169871   32.46%
    766    96      263.7655   239      210.0000      278.1615   176823   32.46%
    767    97      273.8775   269      210.0000      278.1615   176826   32.46%
    790   120      257.3063   254      210.0000      278.1615   185155   32.46%
    813   143      268.6568   246      210.0000      278.1615   192013   32.46%
    871   200      254.7632   212      210.0000      278.1615   198410   32.46%
    922   243      264.1454   214      210.0000      278.1542   205906   32.45%
    988   303      273.9983   321      210.0000      278.0604   211282   32.41%
   1022   337      264.5195   206      210.0000      278.0604   218387   32.41%
Elapsed time = 29.14 sec. (37595.94 ticks, tree = 2.38 MB, solutions = 9)
   1039   344      272.1572   288      210.0000      278.0230   224975   32.39%
   1074   375      276.8532   299      210.0000      277.3459   233898   32.07%
   1107   408      271.3184   244      210.0000      277.3459   240183   32.07%
   1172   465      274.0060   321      210.0000      277.2839   248393   32.04%
   1183   476      265.7693   220      210.0000      277.2839   255532   32.04%
   1238   522      277.0833   321      210.0000      277.2571   264413   32.03%
   1246   530      274.9701   284      210.0000      277.2571   271330   32.03%
   1267   551      271.6618   311      210.0000      277.2571   278813   32.03%
   1303   587      262.0000   193      210.0000      277.2571   286201   32.03%
   1341   620      276.2769   316      210.0000      277.1963   293141   32.00%
Elapsed time = 38.07 sec. (48663.98 ticks, tree = 6.15 MB, solutions = 9)
*  1367+  644                          214.0000      277.1963            29.53%
*  1367+  644                          216.0000      277.1963            28.33%
*  1367+  644                          218.0000      277.1963            27.15%
   1367   646      262.2541   215      218.0000      277.1963   300063   27.15%
   1417   692      264.6226   247      218.0000      277.1929   308288   27.15%
   1457   726      273.8393   315      218.0000      277.1296   315757   27.12%
*  1467+  734                          222.0000      277.1296            24.83%
*  1467+  734                          226.0000      277.1296            22.62%
*  1467+  734                          228.0000      277.1296            21.55%
*  1467+  734                          230.0000      277.1296            20.49%
   1467   736      256.7265   272      230.0000      277.1296   320105   20.49%
   1503   768      244.5791   186      230.0000      277.0830   328933   20.47%
   1547   808      252.9586   231      230.0000      277.0747   336023   20.47%
*  1567+  826                          232.0000      277.0747            19.43%
   1582   840      232.4458   184      232.0000      277.0747   338813   19.43%
   1604   860      271.6190   240      232.0000      277.0040   345690   19.40%
   1655   903      275.8651   310      232.0000      276.9275   353323   19.37%
   1667   915      262.7190   238      232.0000      276.9275   356591   19.37%
Elapsed time = 49.88 sec. (62972.09 ticks, tree = 8.18 MB, solutions = 17)
   1709   945      263.8176   273      232.0000      276.8901   364753   19.35%
   1742   970      273.9050   326      232.0000      276.8133   374708   19.32%
   1779  1007      267.6242   302      232.0000      276.8133   382339   19.32%
   1784  1012      265.6918   310      232.0000      276.8133   392152   19.32%
   1794  1022      265.0289   214      232.0000      276.8133   395571   19.32%
   1831  1055      263.5640   268      232.0000      276.7911   401503   19.31%
   1864  1080      270.5831   291      232.0000      276.7873   409943   19.30%
   1877  1093      257.8204   278      232.0000      276.7873   418962   19.30%
   1898  1114      253.8730   234      232.0000      276.7873   426801   19.30%
   1961  1168      276.0143   319      232.0000      276.7638   433237   19.29%
Elapsed time = 57.70 sec. (73645.02 ticks, tree = 10.46 MB, solutions = 17)
*  1967+ 1158                          234.0000      276.7638            18.28%
   1967  1160      273.6222   289      234.0000      276.7638   435606   18.28%
   2025  1216      255.1519   245      234.0000      276.7638   444701   18.28%
   2052  1239      271.7921   350      234.0000      276.6630   453194   18.23%
   2066  1253      262.6131   275      234.0000      276.6630   462451   18.23%
   2067  1254      270.9861   281      234.0000      276.6630   462495   18.23%
   2135  1322      254.3556   206      234.0000      276.6630   472095   18.23%
   2176  1355      253.8623   207      234.0000      276.6324   479992   18.22%
   2204  1377      265.3209   270      234.0000      276.6158   488248   18.21%
   2259  1428      259.3063   271      234.0000      276.6063   497178   18.21%
   2297  1459      273.2805   317      234.0000      276.5901   503397   18.20%
Elapsed time = 66.10 sec. (84555.27 ticks, tree = 12.49 MB, solutions = 18)
   2310  1471      259.7782   270      234.0000      276.5901   511061   18.20%
   2333  1488      263.3227   278      234.0000      276.5779   518984   18.20%
*  2367+ 1499                          236.0000      276.5779            17.19%
   2367  1501      254.5821   229      236.0000      276.5779   524983   17.19%
   2430  1552      250.0075   212      236.0000      276.5741   533367   17.19%
   2467  1583      262.4233   239      236.0000      276.5681   539019   17.19%
   2520  1630      256.2393   272      236.0000      276.4986   547533   17.16%
   2587  1693      254.7861   241      236.0000      276.4793   554727   17.15%
   2617  1720      260.9149   234      236.0000      276.4776   562271   17.15%
   2667  1768      252.7971   174      236.0000      276.4776   569787   17.15%
   2693  1786      268.7644   271      236.0000      276.4759   577725   17.15%
Elapsed time = 75.01 sec. (96109.74 ticks, tree = 14.74 MB, solutions = 19)
   2732  1820      265.9849   293      236.0000      276.4689   585708   17.15%
   2793  1872      276.2986   334      236.0000      276.4637   594492   17.15%
   2825  1904      266.9781   300      236.0000      276.4637   602059   17.15%
   2864  1939      270.6657   320      236.0000      276.4099   609165   17.12%
   2913  1986      256.6590   307      236.0000      276.4099   619474   17.12%
   2929  1993      266.2115   342      236.0000      276.3347   628638   17.09%
   2943  2007      258.1070   279      236.0000      276.3347   637872   17.09%
   2967  2031      248.5240   237      236.0000      276.3347   643414   17.09%
   2990  2048      264.4864   246      236.0000      276.3007   652060   17.08%
   3040  2092      258.5451   249      236.0000      276.2986   661111   17.08%
Elapsed time = 84.86 sec. (109387.66 ticks, tree = 18.73 MB, solutions = 19)
   3085  2132      272.0798   351      236.0000      276.2959   674322   17.07%
   3096  2143      270.4189   297      236.0000      276.2959   681088   17.07%
   3124  2171      261.3015   253      236.0000      276.2959   688595   17.07%
   3176  2218      256.4973   260      236.0000      276.2769   697991   17.07%
   3194  2232      255.8664   239      236.0000      276.2762   708413   17.07%
   3228  2261      270.5096   330      236.0000      276.2047   717151   17.04%
   3272  2301      275.1889   320      236.0000      276.1685   726683   17.02%
   3325  2350      271.7410   315      236.0000      276.0871   737382   16.99%
   3361  2384      245.8278   186      236.0000      276.0871   745665   16.99%
   3414  2425      268.6435   318      236.0000      275.9913   772554   16.95%
Elapsed time = 95.53 sec. (123819.68 ticks, tree = 21.60 MB, solutions = 19)
   3508  2506      273.4173   306      236.0000      275.9286   804294   16.92%
   3625  2610      272.1857   339      236.0000      275.8647   834571   16.89%
   3726  2700      239.7629   151      236.0000      275.8407   859614   16.88%
   3846  2805      270.9586   321      236.0000      275.7492   891040   16.84%
   3867  2826      266.2874   273      236.0000      275.7492   903984   16.84%
   3977  2928      246.6365   177      236.0000      275.7492   934858   16.84%
   4032  2975      272.6439   310      236.0000      275.7492   965899   16.84%
   4141  3076      272.6919   294      236.0000      275.7303   998391   16.83%
   4260  3174      266.0805   291      236.0000      275.7267  1029185   16.83%
   4358  3258      274.9889   349      236.0000      275.7162  1048208   16.83%
Elapsed time = 126.16 sec. (164905.56 ticks, tree = 29.74 MB, solutions = 19)
   4467  3357      270.8096   285      236.0000      275.6990  1076709   16.82%
   4556  3438      261.4121   199      236.0000      275.6722  1102771   16.81%
Starting limited solution polishing.
   4667  3529      261.3860   250      236.0000      275.6690  1132385   16.81%
   4764  3616      265.8513   350      236.0000      275.6390  1162368   16.80%
   4837  3677      271.2825   280      236.0000      275.5765  1194264   16.77%
   4878  3718      253.2337   264      236.0000      275.5765  1200783   16.77%
   5004  3827      267.1602   340      236.0000      275.4745  1234211   16.73%
Advanced basis not built.

GUB cover cuts applied:  229
Clique cuts applied:  138
Cover cuts applied:  43
Implied bound cuts applied:  184
Flow cuts applied:  26
Mixed integer rounding cuts applied:  135
Zero-half cuts applied:  72
Gomory fractional cuts applied:  4

Root node processing (before b&c):
  Real time             =    0.70 sec. (887.53 ticks)
Sequential b&c:
  Real time             =  149.30 sec. (196221.79 ticks)
                          ------------
Total (root+branch&cut) =  150.00 sec. (197109.32 ticks)

Solution pool: 20 solutions saved.

MIP - Time limit exceeded, integer feasible:  Objective =  2.3600000000e+02
Current MIP best bound =  2.7547451307e+02 (gap = 39.4745, 16.73%)
Solution time =  150.00 sec.  Iterations = 1252527  Nodes = 5049 (3866)
Deterministic time = 197109.33 ticks  (1314.04 ticks/sec)


Incumbent solution
Variable Name           Solution Value
F                           236.000000
y6                            1.000000
y9                            1.000000
y23                           1.000000
y34                           1.000000
y37                           1.000000
y47                           1.000000
y48                           1.000000
y49                           1.000000
y55                           1.000000
y58                           1.000000
y64                           1.000000
y66                           1.000000
y86                           1.000000
y93                           1.000000
y97                           1.000000
y101                          1.000000
y121                          1.000000
y138                          1.000000
y139                          1.000000
y145                          1.000000
y146                          1.000000
y149                          1.000000
y155                          1.000000
y159                          1.000000
y160                          1.000000
y163                          1.000000
y171                          1.000000
y172                          1.000000
y184                          1.000000
y185                          1.000000
y188                          1.000000
y199                          1.000000
y224                          1.000000
y228                          1.000000
y233                          1.000000
y255                          1.000000
y256                          1.000000
y261                          1.000000
y264                          1.000000
y268                          1.000000
y275                          1.000000
x22x172x1                     1.000000
x22x233x1                     1.000000
x26x149x1                     1.000000
x48x228x1                     1.000000
x143x172x1                    1.000000
x182x101x1                    1.000000
x182x255x1                    1.000000
x217x171x1                    1.000000
x217x188x1                    1.000000
x270x48x1                     1.000000
x270x58x1                     1.000000
x9x86x2                       1.000000
x9x261x2                      1.000000
x31x9x2                       2.000000
x44x188x2                     1.000000
x44x275x2                     1.000000
x141x159x2                    1.000000
x141x199x2                    1.000000
x143x159x2                    1.000000
x237x224x2                    1.000000
x265x145x2                    1.000000
x26x199x3                     1.000000
x48x138x3                     1.000000
x62x58x3                      1.000000
x62x185x3                     1.000000
x216x171x3                    1.000000
x216x255x3                    1.000000
x237x185x3                    1.000000
x249x48x3                     1.000000
x249x224x3                    1.000000
x265x145x3                    1.000000
x269x264x3                    2.000000
x145x6x2                      1.000000
x6x93x2                       1.000000
x145x6x3                      1.000000
x6x97x3                       1.000000
x261x23x2                     1.000000
x23x0x2                       1.000000
x255x23x3                     1.000000
x23x0x3                       1.000000
x159x34x2                     1.000000
x34x0x2                       1.000000
x101x34x3                     1.000000
x34x0x3                       1.000000
x86x37x2                      2.000000
x37x0x2                       2.000000
x264x47x3                     2.000000
x47x184x3                     2.000000
x185x49x3                     2.000000
x49x97x3                      1.000000
x49x121x3                     1.000000
x101x55x1                     1.000000
x233x55x1                     1.000000
x55x0x1                       2.000000
x58x233x1                     1.000000
x58x101x3                     1.000000
x171x64x1                     1.000000
x64x0x1                       1.000000
x159x64x2                     1.000000
x64x0x2                       1.000000
x199x66x2                     1.000000
x66x0x2                       1.000000
x199x66x3                     1.000000
x66x0x3                       1.000000
x275x93x2                     1.000000
x93x0x2                       2.000000
x97x0x3                       2.000000
x233x121x1                    1.000000
x121x0x1                      1.000000
x121x0x3                      1.000000
x138x268x3                    2.000000
x275x139x2                    1.000000
x139x0x2                      1.000000
x149x139x3                    1.000000
x139x0x3                      1.000000
x188x146x2                    1.000000
x146x0x2                      1.000000
x171x146x3                    1.000000
x146x0x3                      1.000000
x149x163x1                    1.000000
x224x149x3                    1.000000
x228x155x1                    2.000000
x155x0x1                      2.000000
x255x160x1                    1.000000
x160x0x1                      1.000000
x261x160x2                    1.000000
x160x0x2                      1.000000
x172x163x1                    1.000000
x163x0x1                      2.000000
x172x256x1                    1.000000
x184x0x3                      2.000000
x188x256x1                    1.000000
x224x275x2                    1.000000
x256x0x1                      2.000000
x268x0x3                      2.000000
s9                            6.447047
s6                            7.860000
s21                           8.590000
s23                           9.490000
s29                           7.050000
s34                           8.820000
s36                           6.350000
s37                           9.450000
z9z37z2                       1.000000
s64                           8.850000
s66                           8.590000
s86                           7.832750
z9z86z2                       1.000000
s93                           9.210000
s108                          7.850000
s123                          8.240000
s124                          7.290000
s139                          9.120000
s145                          6.682863
s146                          8.570000
s156                          7.350000
s159                          7.285440
s160                          9.400000
s188                          7.281348
s199                          7.376979
s211                          7.850000
s221                          7.980000
s224                          6.359980
s236                          7.110000
s241                          8.820000
s253                          7.620000
s261                          8.068404
z9z261z2                      1.000000
s275                          7.884236
s22                           5.886800
s55                           9.340000
z22z55z1                      1.000000
s58                           6.460000
s101                          7.647736
s121                          9.260000
s149                          7.389795
s155                          9.290000
z22z155z1                     1.000000
s163                          8.927279
z22z163z1                     1.000000
s171                          6.959736
s172                          7.260821
z22z172z1                     1.000000
s191                          6.190000
s210                          8.440000
z22z210z1                     1.000000
s228                          7.706266
s233                          8.093243
z22z233z1                     1.000000
s255                          8.104703
s256                          8.970000
z22z256z1                     1.000000
s26                           5.611071
s43                           6.560000
s47                           8.160185
z26z47z3                      1.000000
s49                           7.865059
z26z49z3                      1.000000
z26z55z1                      1.000000
s97                           9.420000
z26z97z3                      1.000000
s138                          7.606642
z26z138z3                     1.000000
z26z149z1                     1.000000
z26z155z1                     1.000000
z26z163z1                     1.000000
s184                          9.310000
z26z184z3                     1.000000
s185                          6.700000
z26z199z3                     1.000000
z26z210z1                     1.000000
z26z233z1                     1.000000
z26z256z1                     1.000000
s264                          6.819676
s268                          8.790000
z26z268z3                     1.000000
s31                           5.222268
z31z9z2                       1.000000
z31z29z2                      1.000000
z31z37z2                      1.000000
z31z86z2                      1.000000
z31z93z2                      1.000000
z31z124z2                     1.000000
z31z159z2                     1.000000
s167                          6.000000
z31z241z2                     1.000000
z31z253z2                     1.000000
z31z261z2                     1.000000
z31z275z2                     1.000000
s44                           5.822517
z44z37z2                      1.000000
z44z86z2                      1.000000
z44z93z2                      1.000000
z44z124z2                     1.000000
z44z188z2                     1.000000
z44z241z2                     1.000000
z44z253z2                     1.000000
z44z275z2                     1.000000
s48                           6.105443
z48z55z1                      1.000000
z48z97z3                      1.000000
z48z138z3                     1.000000
s154                          6.060000
z48z155z1                     1.000000
z48z163z1                     1.000000
z48z184z3                     1.000000
z48z228z1                     1.000000
z48z256z1                     1.000000
z48z268z3                     1.000000
s62                           4.717889
z62z43z3                      1.000000
z62z47z3                      1.000000
z62z49z3                      1.000000
z62z58z3                      1.000000
z62z97z3                      1.000000
z62z138z3                     1.000000
z62z184z3                     1.000000
z62z185z3                     1.000000
z62z264z3                     1.000000
z62z268z3                     1.000000
s141                          5.799409
z141z37z2                     1.000000
z141z86z2                     1.000000
z141z93z2                     1.000000
z141z124z2                    1.000000
z141z159z2                    1.000000
z141z199z2                    1.000000
z141z241z2                    1.000000
z141z253z2                    1.000000
z141z275z2                    1.000000
s143                          5.808230
z143z37z2                     1.000000
z143z55z1                     1.000000
z143z86z2                     1.000000
z143z93z2                     1.000000
z143z155z1                    1.000000
z143z159z2                    1.000000
z143z163z1                    1.000000
z143z172z1                    1.000000
z143z210z1                    1.000000
z143z233z1                    1.000000
z143z241z2                    1.000000
z143z253z2                    1.000000
z143z256z1                    1.000000
z143z275z2                    1.000000
z167z37z2                     1.000000
z167z55z1                     1.000000
s182                          5.922833
z182z55z1                     1.000000
z182z101z1                    1.000000
z182z155z1                    1.000000
z182z163z1                    1.000000
z182z210z1                    1.000000
z182z233z1                    1.000000
z182z255z1                    1.000000
z182z256z1                    1.000000
s216                          5.377402
z216z47z3                     1.000000
z216z49z3                     1.000000
z216z97z3                     1.000000
z216z138z3                    1.000000
z216z171z3                    1.000000
z216z184z3                    1.000000
z216z255z3                    1.000000
z216z264z3                    1.000000
z216z268z3                    1.000000
s217                          5.732866
z217z55z1                     1.000000
z217z155z1                    1.000000
z217z163z1                    1.000000
z217z171z1                    1.000000
z217z188z1                    1.000000
z217z210z1                    1.000000
z217z233z1                    1.000000
z217z256z1                    1.000000
s237                          5.090000
z237z29z2                     1.000000
z237z37z2                     1.000000
z237z43z3                     1.000000
z237z47z3                     1.000000
z237z49z3                     1.000000
z237z86z2                     1.000000
z237z93z2                     1.000000
z237z97z3                     1.000000
z237z124z2                    1.000000
z237z138z3                    1.000000
z237z159z2                    1.000000
z237z184z3                    1.000000
z237z185z3                    1.000000
z237z224z2                    1.000000
z237z241z2                    1.000000
z237z253z2                    1.000000
z237z261z2                    1.000000
z237z264z3                    1.000000
z237z268z3                    1.000000
z237z275z2                    1.000000
s249                          4.440000
z249z43z3                     1.000000
z249z47z3                     1.000000
z249z48z3                     1.000000
z249z49z3                     1.000000
z249z97z3                     1.000000
z249z138z3                    1.000000
z249z184z3                    1.000000
z249z185z3                    1.000000
z249z224z3                    1.000000
z249z264z3                    1.000000
z249z268z3                    1.000000
s265                          4.941214
z265z29z2                     1.000000
z265z37z2                     1.000000
z265z47z3                     1.000000
z265z49z3                     1.000000
z265z86z2                     1.000000
z265z93z2                     1.000000
z265z97z3                     1.000000
z265z124z2                    1.000000
z265z138z3                    1.000000
z265z145z2                    1.000000
z265z145z3                    1.000000
z265z159z2                    1.000000
z265z184z3                    1.000000
z265z185z3                    1.000000
z265z241z2                    1.000000
z265z253z2                    1.000000
z265z261z2                    1.000000
z265z264z3                    1.000000
z265z268z3                    1.000000
z265z275z2                    1.000000
s269                          5.202447
z269z47z3                     1.000000
z269z49z3                     1.000000
z269z97z3                     1.000000
z269z138z3                    1.000000
z269z184z3                    1.000000
z269z264z3                    1.000000
z269z268z3                    1.000000
s270                          4.852068
z270z48z1                     1.000000
z270z55z1                     1.000000
z270z58z1                     1.000000
z270z155z1                    1.000000
z270z163z1                    1.000000
z270z210z1                    1.000000
z270z228z1                    1.000000
z270z233z1                    1.000000
z270z256z1                    1.000000
z6z37z2                       1.000000
z6z93z2                       1.000000
z6z97z3                       1.000000
z6z184z3                      1.000000
z36z37z2                      1.000000
z36z184z3                     1.000000
z43z184z3                     1.000000
z47z184z3                     1.000000
z49z97z3                      1.000000
z49z121z3                     1.000000
z49z184z3                     1.000000
z58z55z1                      1.000000
z58z101z3                     1.000000
z58z184z3                     1.000000
z58z233z1                     1.000000
z86z37z2                      1.000000
z101z34z3                     1.000000
z101z55z1                     1.000000
z108z37z2                     1.000000
z108z184z3                    1.000000
z138z268z3                    1.000000
z145z6z2                      1.000000
z145z6z3                      1.000000
z145z37z2                     1.000000
z145z184z3                    1.000000
z149z55z1                     1.000000
z149z139z3                    1.000000
z149z163z1                    1.000000
z149z184z3                    1.000000
z154z55z1                     1.000000
z154z155z1                    1.000000
z154z163z1                    1.000000
z154z256z1                    1.000000
z159z34z2                     1.000000
z159z64z2                     1.000000
z171z55z1                     1.000000
z171z64z1                     1.000000
z171z146z3                    1.000000
z171z184z3                    1.000000
z172z55z1                     1.000000
z172z163z1                    1.000000
z172z256z1                    1.000000
z185z47z3                     1.000000
z185z49z3                     1.000000
z185z184z3                    1.000000
z188z37z2                     1.000000
z188z55z1                     1.000000
z188z146z2                    1.000000
z188z256z1                    1.000000
z191z55z1                     1.000000
z191z184z3                    1.000000
z199z37z2                     1.000000
z199z66z2                     1.000000
z199z66z3                     1.000000
z199z184z3                    1.000000
z211z37z2                     1.000000
z211z184z3                    1.000000
z224z37z2                     1.000000
z224z149z3                    1.000000
z224z184z3                    1.000000
z224z275z2                    1.000000
z228z55z1                     1.000000
z228z155z1                    1.000000
z228z256z1                    1.000000
z233z55z1                     1.000000
z233z121z1                    1.000000
z255z23z3                     1.000000
z255z160z1                    1.000000
z261z23z2                     1.000000
z261z160z2                    1.000000
z264z47z3                     1.000000
z264z184z3                    1.000000
z275z37z2                     1.000000
z275z93z2                     1.000000
z275z139z2                    1.000000
All other variables in the range 1-3453 are 0.
